problem_generation/data/GISP/train/er_n=66_m=1314_p=0.60_SET2_setparam=100.00_alpha=0.50_340.lp
maximize
OBJ:100x0 + 100x1 + 100x2 + 100x3 + 100x4 + 100x5 + 100x6 + 100x7 + 100x8 + 100x9 + 100x10 + 100x11 + 100x12 + 100x13 + 100x14 + 100x15 + 100x16 + 100x17 + 100x18 + 100x19 + 100x20 + 100x21 + 100x22 + 100x23 + 100x24 + 100x25 + 100x26 + 100x27 + 100x28 + 100x29 + 100x30 + 100x31 + 100x32 + 100x33 + 100x34 + 100x35 + 100x36 + 100x37 + 100x38 + 100x39 + 100x40 + 100x41 + 100x42 + 100x43 + 100x44 + 100x45 + 100x46 + 100x47 + 100x48 + 100x49 + 100x50 + 100x51 + 100x52 + 100x53 + 100x54 + 100x55 + 100x56 + 100x57 + 100x58 + 100x59 + 100x60 + 100x61 + 100x62 + 100x63 + 100x64 + 100x65 - y26_30 - y7_26 - y36_62 - y15_39 - y59_64 - y18_35 - y8_9 - y8_18 - y6_48 - y48_63 - y0_23 - y6_57 - y29_59 - y10_36 - y10_54 - y33_56 - y25_52 - y10_63 - y3_24 - y22_37 - y3_33 - y24_65 - y14_42 - y7_12 - y47_48 - y15_25 - y36_57 - y17_53 - y9_58 - y6_34 - y48_49 - y21_32 - y6_52 - y40_63 - y21_59 - y10_31 - y10_49 - y2_45 - y25_47 - y10_58 - y22_23 - y51_59 - y3_19 - y13_51 - y36_43 - y17_39 - y36_52 - y47_52 - y5_46 - y17_48 - y28_48 - y59_63 - y28_57 - y5_64 - y6_47 - y40_49 - y6_56 - y40_58 - y10_17 - y2_13 - y62_64 - y10_35 - y10_44 - y3_5 - y51_54 - y43_50 - y3_23 - y1_53 - y1_62 - y13_64 - y24_64 - y16_60 - y35_64 - y9_30 - y55_60 - y5_41 - y36_56 - y28_52 - y28_61 - y6_24 - y9_57 - y6_33 - y21_31 - y6_42 - y42_63 - y6_51 - y39_57 - y20_53 - y54_55 - y32_36 - y24_32 - y43_45 - y51_58 - y24_41 - y14_18 - y32_54 - y32_63 - y43_63 - y1_57 - y35_59 - y36_42 - y9_25 - y5_36 - y28_38 - y47_51 - y6_10 - y9_43 - y5_54 - y28_56 - y50_53 - y6_28 - y30_65 - y2_3 - y10_16 - y39_52 - y10_25 - y12_44 - y39_61 - y31_57 - y4_49 - y23_62 - y24_27 - y3_4 - y51_53 - y35_36 - y32_49 - y13_54 - y24_54 - y36_37 - y9_20 - y17_33 - y38_65 - y28_42 - y9_47 - y5_58 - y6_23 - y30_60 - y42_62 - y0_56 - y20_52 - y31_52 - y39_65 - y12_48 - y20_61 - y12_57 - y1_29 - y32_44 - y35_40 - y13_49 - y5_17 - y17_19 - y38_51 - y49_51 - y38_60 - y49_60 - y17_37 - y9_33 - y5_44 - y6_9 - y58_65 - y30_46 - y8_55 - y11_51 - y30_64 - y20_29 - y39_42 - y31_38 - y39_51 - y12_34 - y2_11 - y20_56 - y31_56 - y1_15 - y13_26 - y4_57 - y16_22 - y1_33 - y24_35 - y13_44 - y16_49 - y38_46 - y5_21 - y46_59 - y15_53 - y38_55 - y38_64 - y7_58 - y19_41 - y42_43 - y50_56 - y19_50 - y27_63 - y8_59 - y42_61 - y12_20 - y31_33 - y0_64 - y39_46 - y20_42 - y31_42 - y31_51 - y4_34 - y12_56 - y1_19 - y53_57 - y4_52 - y24_30 - y45_62 - y5_16 - y46_54 - y15_48 - y5_25 - y46_63 - y26_57 - y18_53 - y7_62 - y8_27 - y27_40 - y8_36 - y19_36 - y11_32 - y30_45 - y0_41 - y42_56 - y12_15 - y8_63 - y60_64 - y4_11 - y0_59 - y12_24 - y39_41 - y41_60 - y4_20 - y52_60 - y4_29 - y33_65 - y44_65 - y1_14 - y34_48 - y1_23 - y37_44 - y16_21 - y45_57 - y37_53 - y15_34 - y46_49 - y26_43 - y18_39 - y26_61 - y49_63 - y27_35 - y0_18 - y11_18 - y19_31 - y0_27 - y63_65 - y27_53 - y0_36 - y11_36 - y8_49 - y19_49 - y11_45 - y0_54 - y12_19 - y4_15 - y33_51 - y33_60 - y1_9 - y2_63 - y22_41 - y1_18 - y64_65 - y56_61 - y15_20 - y18_25 - y38_40 - y7_43 - y15_56 - y8_17 - y48_62 - y27_39 - y0_22 - y11_22 - y30_35 - y4_10 - y33_46 - y12_23 - y25_51 - y4_28 - y33_64 - y25_60 - y22_36 - y34_38 - y1_13 - y14_41 - y37_43 - y34_56 - y56_65 - y3_59 - y37_61 - y18_29 - y26_42 - y7_38 - y15_51 - y18_47 - y7_56 - y8_21 - y19_21 - y0_17 - y19_30 - y0_26 - y21_58 - y11_35 - y41_45 - y33_41 - y44_50 - y41_63 - y2_44 - y25_46 - y10_57 - y25_55 - y25_64 - y14_27 - y34_42 - y37_38 - y34_51 - y3_45 - y37_47 - y3_54 - y7_15 - y7_24 - y18_24 - y7_33 - y18_33 - y26_46 - y28_65 - y7_42 - y8_16 - y48_52 - y11_12 - y40_48 - y0_21 - y40_57 - y6_64 - y21_62 - y33_36 - y4_9 - y52_58 - y10_52 - y3_13 - y51_62 - y2_57 - y34_37 - y14_40 - y22_53 - y7_10 - y55_59 - y36_55 - y47_55 - y18_28 - y17_60 - y29_34 - y0_7 - y6_41 - y21_39 - y29_52 - y21_57 - y10_20 - y41_44 - y2_34 - y25_36 - y2_43 - y3_8 - y25_45 - y51_57 - y22_30 - y32_62 - y3_35 - y14_44 - y16_63 - y5_62 - y6_27 - y21_25 - y29_38 - y6_45 - y29_47 - y6_54 - y40_56 - y6_63 - y10_33 - y20_65 - y10_51 - y51_52 - y43_48 - y2_56 - y32_57 - y13_53 - y24_53 - y35_53 - y13_62 - y28_32 - y7_9 - y36_45 - y36_63 - y29_33 - y50_65 - y6_49 - y10_19 - y39_55 - y10_28 - y20_60 - y25_26 - y31_60 - y2_33 - y12_65 - y24_39 - y35_39 - y13_48 - y24_48 - y3_25 - y16_53 - y17_27 - y9_23 - y5_43 - y17_45 - y9_41 - y6_17 - y5_61 - y58_64 - y29_37 - y21_33 - y6_44 - y42_65 - y21_42 - y10_14 - y39_59 - y12_51 - y2_37 - y4_56 - y24_34 - y3_11 - y51_60 - y13_43 - y24_43 - y1_50 - y24_52 - y16_48 - y16_57 - y5_20 - y9_18 - y17_31 - y17_49 - y6_12 - y6_21 - y58_59 - y42_51 - y39_54 - y4_42 - y23_55 - y4_60 - y16_25 - y51_55 - y1_36 - y24_38 - y43_51 - y1_45 - y35_47 - y16_43 - y1_54 - y35_56 - y46_53 - y9_13 - y46_62 - y9_22 - y38_58 - y5_33 - y17_35 - y28_35 - y6_25 - y42_46 - y21_23 - y27_57 - y0_49 - y19_62 - y20_27 - y30_62 - y11_58 - y10_13 - y39_49 - y31_45 - y39_58 - y2_18 - y54_56 - y12_50 - y13_15 - y20_63 - y31_63 - y12_59 - y23_59 - y53_60 - y1_31 - y43_46 - y1_40 - y24_42 - y16_38 - y35_51 - y38_44 - y17_21 - y38_53 - y5_28 - y28_30 - y26_60 - y7_65 - y18_65 - y8_39 - y30_39 - y50_54 - y61_63 - y0_44 - y19_57 - y42_59 - y0_62 - y11_62 - y12_27 - y2_4 - y12_36 - y12_45 - y23_45 - y12_54 - y13_19 - y23_54 - y53_55 - y23_63 - y1_26 - y13_28 - y4_59 - y34_60 - y1_35 - y35_37 - y16_33 - y46_52 - y46_61 - y15_55 - y7_51 - y18_51 - y18_60 - y27_38 - y19_34 - y30_34 - y42_45 - y27_56 - y8_52 - y19_52 - y8_61 - y19_61 - y20_26 - y12_31 - y23_31 - y20_44 - y4_27 - y31_44 - y53_59 - y45_55 - y22_62 - y56_64 - y1_39 - y37_60 - y46_47 - y38_43 - y5_18 - y46_56 - y8_20 - y11_25 - y11_43 - y19_56 - y30_56 - y0_52 - y20_30 - y4_13 - y23_26 - y31_39 - y4_22 - y1_7 - y25_63 - y34_41 - y1_16 - y22_48 - y34_50 - y45_50 - y53_63 - y34_59 - y45_59 - y26_27 - y5_13 - y15_45 - y26_54 - y49_56 - y8_15 - y27_37 - y0_20 - y11_20 - y8_33 - y27_46 - y11_29 - y40_65 - y11_38 - y19_51 - y11_47 - y52_57 - y12_30 - y25_49 - y4_26 - y10_60 - y44_62 - y25_58 - y4_35 - y22_34 - y34_36 - y3_39 - y14_39 - y22_52 - y37_41 - y45_54 - y14_48 - y45_63 - y14_57 - y7_18 - y15_31 - y26_31 - y7_36 - y26_49 - y15_58 - y18_54 - y0_15 - y19_28 - y48_64 - y0_24 - y0_42 - y11_42 - y33_39 - y12_16 - y60_65 - y4_12 - y41_61 - y52_61 - y4_21 - y10_55 - y10_64 - y22_29 - y22_38 - y34_49 - y45_49 - y3_43 - y14_43 - y37_45 - y3_61 - y26_44 - y0_10 - y19_23 - y0_19 - y0_28 - y40_64 - y21_60 - y4_7 - y41_56 - y2_46 - y25_48 - y10_59 - y2_55 - y14_20 - y37_40 - y14_47 - y7_8 - y3_56
 Subject to
C1: x0+x1 <=1 
C2: x0+x2 <=1 
C3: x0+x3 <=1 
C4: x0+x5 <=1 
C5: x0+x6 <=1 
C6: x0+x7-y0_7 <=1 
C7: x0+x10-y0_10 <=1 
C8: x0+x11 <=1 
C9: x0+x14 <=1 
C10: x0+x15-y0_15 <=1 
C11: x0+x16 <=1 
C12: x0+x17-y0_17 <=1 
C13: x0+x18-y0_18 <=1 
C14: x0+x19-y0_19 <=1 
C15: x0+x20-y0_20 <=1 
C16: x0+x21-y0_21 <=1 
C17: x0+x22-y0_22 <=1 
C18: x0+x23-y0_23 <=1 
C19: x0+x24-y0_24 <=1 
C20: x0+x26-y0_26 <=1 
C21: x0+x27-y0_27 <=1 
C22: x0+x28-y0_28 <=1 
C23: x0+x29 <=1 
C24: x0+x32 <=1 
C25: x0+x33 <=1 
C26: x0+x34 <=1 
C27: x0+x35 <=1 
C28: x0+x36-y0_36 <=1 
C29: x0+x37 <=1 
C30: x0+x41-y0_41 <=1 
C31: x0+x42-y0_42 <=1 
C32: x0+x43 <=1 
C33: x0+x44-y0_44 <=1 
C34: x0+x49-y0_49 <=1 
C35: x0+x52-y0_52 <=1 
C36: x0+x54-y0_54 <=1 
C37: x0+x56-y0_56 <=1 
C38: x0+x57 <=1 
C39: x0+x58 <=1 
C40: x0+x59-y0_59 <=1 
C41: x0+x60 <=1 
C42: x0+x61 <=1 
C43: x0+x62-y0_62 <=1 
C44: x0+x64-y0_64 <=1 
C45: x1+x2 <=1 
C46: x1+x3 <=1 
C47: x1+x4 <=1 
C48: x1+x6 <=1 
C49: x1+x7-y1_7 <=1 
C50: x1+x9-y1_9 <=1 
C51: x1+x10 <=1 
C52: x1+x11 <=1 
C53: x1+x12 <=1 
C54: x1+x13-y1_13 <=1 
C55: x1+x14-y1_14 <=1 
C56: x1+x15-y1_15 <=1 
C57: x1+x16-y1_16 <=1 
C58: x1+x18-y1_18 <=1 
C59: x1+x19-y1_19 <=1 
C60: x1+x20 <=1 
C61: x1+x22 <=1 
C62: x1+x23-y1_23 <=1 
C63: x1+x24 <=1 
C64: x1+x26-y1_26 <=1 
C65: x1+x29-y1_29 <=1 
C66: x1+x30 <=1 
C67: x1+x31-y1_31 <=1 
C68: x1+x32 <=1 
C69: x1+x33-y1_33 <=1 
C70: x1+x34 <=1 
C71: x1+x35-y1_35 <=1 
C72: x1+x36-y1_36 <=1 
C73: x1+x37 <=1 
C74: x1+x39-y1_39 <=1 
C75: x1+x40-y1_40 <=1 
C76: x1+x41 <=1 
C77: x1+x44 <=1 
C78: x1+x45-y1_45 <=1 
C79: x1+x46 <=1 
C80: x1+x47 <=1 
C81: x1+x50-y1_50 <=1 
C82: x1+x53-y1_53 <=1 
C83: x1+x54-y1_54 <=1 
C84: x1+x57-y1_57 <=1 
C85: x1+x62-y1_62 <=1 
C86: x1+x63 <=1 
C87: x1+x65 <=1 
C88: x2+x3-y2_3 <=1 
C89: x2+x4-y2_4 <=1 
C90: x2+x11-y2_11 <=1 
C91: x2+x13-y2_13 <=1 
C92: x2+x15 <=1 
C93: x2+x16 <=1 
C94: x2+x18-y2_18 <=1 
C95: x2+x19 <=1 
C96: x2+x20 <=1 
C97: x2+x29 <=1 
C98: x2+x31 <=1 
C99: x2+x32 <=1 
C100: x2+x33-y2_33 <=1 
C101: x2+x34-y2_34 <=1 
C102: x2+x36 <=1 
C103: x2+x37-y2_37 <=1 
C104: x2+x38 <=1 
C105: x2+x39 <=1 
C106: x2+x40 <=1 
C107: x2+x41 <=1 
C108: x2+x42 <=1 
C109: x2+x43-y2_43 <=1 
C110: x2+x44-y2_44 <=1 
C111: x2+x45-y2_45 <=1 
C112: x2+x46-y2_46 <=1 
C113: x2+x47 <=1 
C114: x2+x50 <=1 
C115: x2+x54 <=1 
C116: x2+x55-y2_55 <=1 
C117: x2+x56-y2_56 <=1 
C118: x2+x57-y2_57 <=1 
C119: x2+x58 <=1 
C120: x2+x60 <=1 
C121: x2+x61 <=1 
C122: x2+x63-y2_63 <=1 
C123: x2+x64 <=1 
C124: x3+x4-y3_4 <=1 
C125: x3+x5-y3_5 <=1 
C126: x3+x7 <=1 
C127: x3+x8-y3_8 <=1 
C128: x3+x10 <=1 
C129: x3+x11-y3_11 <=1 
C130: x3+x13-y3_13 <=1 
C131: x3+x19-y3_19 <=1 
C132: x3+x21 <=1 
C133: x3+x23-y3_23 <=1 
C134: x3+x24-y3_24 <=1 
C135: x3+x25-y3_25 <=1 
C136: x3+x28 <=1 
C137: x3+x31 <=1 
C138: x3+x32 <=1 
C139: x3+x33-y3_33 <=1 
C140: x3+x34 <=1 
C141: x3+x35-y3_35 <=1 
C142: x3+x38 <=1 
C143: x3+x39-y3_39 <=1 
C144: x3+x42 <=1 
C145: x3+x43-y3_43 <=1 
C146: x3+x44 <=1 
C147: x3+x45-y3_45 <=1 
C148: x3+x46 <=1 
C149: x3+x47 <=1 
C150: x3+x48 <=1 
C151: x3+x53 <=1 
C152: x3+x54-y3_54 <=1 
C153: x3+x56-y3_56 <=1 
C154: x3+x57 <=1 
C155: x3+x59-y3_59 <=1 
C156: x3+x61-y3_61 <=1 
C157: x3+x62 <=1 
C158: x4+x7-y4_7 <=1 
C159: x4+x9-y4_9 <=1 
C160: x4+x10-y4_10 <=1 
C161: x4+x11-y4_11 <=1 
C162: x4+x12-y4_12 <=1 
C163: x4+x13-y4_13 <=1 
C164: x4+x14 <=1 
C165: x4+x15-y4_15 <=1 
C166: x4+x17 <=1 
C167: x4+x18 <=1 
C168: x4+x20-y4_20 <=1 
C169: x4+x21-y4_21 <=1 
C170: x4+x22-y4_22 <=1 
C171: x4+x24 <=1 
C172: x4+x26-y4_26 <=1 
C173: x4+x27-y4_27 <=1 
C174: x4+x28-y4_28 <=1 
C175: x4+x29-y4_29 <=1 
C176: x4+x31 <=1 
C177: x4+x32 <=1 
C178: x4+x34-y4_34 <=1 
C179: x4+x35-y4_35 <=1 
C180: x4+x36 <=1 
C181: x4+x37 <=1 
C182: x4+x38 <=1 
C183: x4+x39 <=1 
C184: x4+x40 <=1 
C185: x4+x42-y4_42 <=1 
C186: x4+x44 <=1 
C187: x4+x48 <=1 
C188: x4+x49-y4_49 <=1 
C189: x4+x51 <=1 
C190: x4+x52-y4_52 <=1 
C191: x4+x53 <=1 
C192: x4+x56-y4_56 <=1 
C193: x4+x57-y4_57 <=1 
C194: x4+x58 <=1 
C195: x4+x59-y4_59 <=1 
C196: x4+x60-y4_60 <=1 
C197: x4+x61 <=1 
C198: x5+x8 <=1 
C199: x5+x9 <=1 
C200: x5+x12 <=1 
C201: x5+x13-y5_13 <=1 
C202: x5+x14 <=1 
C203: x5+x15 <=1 
C204: x5+x16-y5_16 <=1 
C205: x5+x17-y5_17 <=1 
C206: x5+x18-y5_18 <=1 
C207: x5+x20-y5_20 <=1 
C208: x5+x21-y5_21 <=1 
C209: x5+x24 <=1 
C210: x5+x25-y5_25 <=1 
C211: x5+x26 <=1 
C212: x5+x27 <=1 
C213: x5+x28-y5_28 <=1 
C214: x5+x29 <=1 
C215: x5+x31 <=1 
C216: x5+x32 <=1 
C217: x5+x33-y5_33 <=1 
C218: x5+x34 <=1 
C219: x5+x36-y5_36 <=1 
C220: x5+x39 <=1 
C221: x5+x41-y5_41 <=1 
C222: x5+x42 <=1 
C223: x5+x43-y5_43 <=1 
C224: x5+x44-y5_44 <=1 
C225: x5+x46-y5_46 <=1 
C226: x5+x48 <=1 
C227: x5+x49 <=1 
C228: x5+x50 <=1 
C229: x5+x52 <=1 
C230: x5+x53 <=1 
C231: x5+x54-y5_54 <=1 
C232: x5+x55 <=1 
C233: x5+x56 <=1 
C234: x5+x57 <=1 
C235: x5+x58-y5_58 <=1 
C236: x5+x59 <=1 
C237: x5+x60 <=1 
C238: x5+x61-y5_61 <=1 
C239: x5+x62-y5_62 <=1 
C240: x5+x64-y5_64 <=1 
C241: x6+x7 <=1 
C242: x6+x9-y6_9 <=1 
C243: x6+x10-y6_10 <=1 
C244: x6+x12-y6_12 <=1 
C245: x6+x15 <=1 
C246: x6+x16 <=1 
C247: x6+x17-y6_17 <=1 
C248: x6+x19 <=1 
C249: x6+x21-y6_21 <=1 
C250: x6+x23-y6_23 <=1 
C251: x6+x24-y6_24 <=1 
C252: x6+x25-y6_25 <=1 
C253: x6+x26 <=1 
C254: x6+x27-y6_27 <=1 
C255: x6+x28-y6_28 <=1 
C256: x6+x30 <=1 
C257: x6+x31 <=1 
C258: x6+x33-y6_33 <=1 
C259: x6+x34-y6_34 <=1 
C260: x6+x36 <=1 
C261: x6+x37 <=1 
C262: x6+x38 <=1 
C263: x6+x39 <=1 
C264: x6+x41-y6_41 <=1 
C265: x6+x42-y6_42 <=1 
C266: x6+x44-y6_44 <=1 
C267: x6+x45-y6_45 <=1 
C268: x6+x47-y6_47 <=1 
C269: x6+x48-y6_48 <=1 
C270: x6+x49-y6_49 <=1 
C271: x6+x51-y6_51 <=1 
C272: x6+x52-y6_52 <=1 
C273: x6+x53 <=1 
C274: x6+x54-y6_54 <=1 
C275: x6+x56-y6_56 <=1 
C276: x6+x57-y6_57 <=1 
C277: x6+x58 <=1 
C278: x6+x60 <=1 
C279: x6+x62 <=1 
C280: x6+x63-y6_63 <=1 
C281: x6+x64-y6_64 <=1 
C282: x7+x8-y7_8 <=1 
C283: x7+x9-y7_9 <=1 
C284: x7+x10-y7_10 <=1 
C285: x7+x11 <=1 
C286: x7+x12-y7_12 <=1 
C287: x7+x13 <=1 
C288: x7+x14 <=1 
C289: x7+x15-y7_15 <=1 
C290: x7+x18-y7_18 <=1 
C291: x7+x19 <=1 
C292: x7+x20 <=1 
C293: x7+x22 <=1 
C294: x7+x23 <=1 
C295: x7+x24-y7_24 <=1 
C296: x7+x25 <=1 
C297: x7+x26-y7_26 <=1 
C298: x7+x27 <=1 
C299: x7+x29 <=1 
C300: x7+x30 <=1 
C301: x7+x32 <=1 
C302: x7+x33-y7_33 <=1 
C303: x7+x34 <=1 
C304: x7+x36-y7_36 <=1 
C305: x7+x38-y7_38 <=1 
C306: x7+x41 <=1 
C307: x7+x42-y7_42 <=1 
C308: x7+x43-y7_43 <=1 
C309: x7+x44 <=1 
C310: x7+x46 <=1 
C311: x7+x47 <=1 
C312: x7+x49 <=1 
C313: x7+x51-y7_51 <=1 
C314: x7+x53 <=1 
C315: x7+x56-y7_56 <=1 
C316: x7+x58-y7_58 <=1 
C317: x7+x59 <=1 
C318: x7+x62-y7_62 <=1 
C319: x7+x64 <=1 
C320: x7+x65-y7_65 <=1 
C321: x8+x9-y8_9 <=1 
C322: x8+x12 <=1 
C323: x8+x14 <=1 
C324: x8+x15-y8_15 <=1 
C325: x8+x16-y8_16 <=1 
C326: x8+x17-y8_17 <=1 
C327: x8+x18-y8_18 <=1 
C328: x8+x20-y8_20 <=1 
C329: x8+x21-y8_21 <=1 
C330: x8+x23 <=1 
C331: x8+x26 <=1 
C332: x8+x27-y8_27 <=1 
C333: x8+x29 <=1 
C334: x8+x30 <=1 
C335: x8+x32 <=1 
C336: x8+x33-y8_33 <=1 
C337: x8+x36-y8_36 <=1 
C338: x8+x39-y8_39 <=1 
C339: x8+x42 <=1 
C340: x8+x43 <=1 
C341: x8+x45 <=1 
C342: x8+x47 <=1 
C343: x8+x49-y8_49 <=1 
C344: x8+x51 <=1 
C345: x8+x52-y8_52 <=1 
C346: x8+x53 <=1 
C347: x8+x54 <=1 
C348: x8+x55-y8_55 <=1 
C349: x8+x56 <=1 
C350: x8+x57 <=1 
C351: x8+x59-y8_59 <=1 
C352: x8+x61-y8_61 <=1 
C353: x8+x62 <=1 
C354: x8+x63-y8_63 <=1 
C355: x9+x11 <=1 
C356: x9+x13-y9_13 <=1 
C357: x9+x18-y9_18 <=1 
C358: x9+x19 <=1 
C359: x9+x20-y9_20 <=1 
C360: x9+x21 <=1 
C361: x9+x22-y9_22 <=1 
C362: x9+x23-y9_23 <=1 
C363: x9+x24 <=1 
C364: x9+x25-y9_25 <=1 
C365: x9+x26 <=1 
C366: x9+x30-y9_30 <=1 
C367: x9+x31 <=1 
C368: x9+x33-y9_33 <=1 
C369: x9+x34 <=1 
C370: x9+x37 <=1 
C371: x9+x41-y9_41 <=1 
C372: x9+x42 <=1 
C373: x9+x43-y9_43 <=1 
C374: x9+x44 <=1 
C375: x9+x46 <=1 
C376: x9+x47-y9_47 <=1 
C377: x9+x49 <=1 
C378: x9+x50 <=1 
C379: x9+x51 <=1 
C380: x9+x52 <=1 
C381: x9+x55 <=1 
C382: x9+x56 <=1 
C383: x9+x57-y9_57 <=1 
C384: x9+x58-y9_58 <=1 
C385: x9+x59 <=1 
C386: x9+x60 <=1 
C387: x9+x61 <=1 
C388: x9+x62 <=1 
C389: x9+x63 <=1 
C390: x9+x64 <=1 
C391: x9+x65 <=1 
C392: x10+x13-y10_13 <=1 
C393: x10+x14-y10_14 <=1 
C394: x10+x16-y10_16 <=1 
C395: x10+x17-y10_17 <=1 
C396: x10+x19-y10_19 <=1 
C397: x10+x20-y10_20 <=1 
C398: x10+x21 <=1 
C399: x10+x23 <=1 
C400: x10+x25-y10_25 <=1 
C401: x10+x27 <=1 
C402: x10+x28-y10_28 <=1 
C403: x10+x31-y10_31 <=1 
C404: x10+x33-y10_33 <=1 
C405: x10+x35-y10_35 <=1 
C406: x10+x36-y10_36 <=1 
C407: x10+x37 <=1 
C408: x10+x39 <=1 
C409: x10+x40 <=1 
C410: x10+x41 <=1 
C411: x10+x42 <=1 
C412: x10+x44-y10_44 <=1 
C413: x10+x46 <=1 
C414: x10+x47 <=1 
C415: x10+x49-y10_49 <=1 
C416: x10+x50 <=1 
C417: x10+x51-y10_51 <=1 
C418: x10+x52-y10_52 <=1 
C419: x10+x54-y10_54 <=1 
C420: x10+x55-y10_55 <=1 
C421: x10+x56 <=1 
C422: x10+x57-y10_57 <=1 
C423: x10+x58-y10_58 <=1 
C424: x10+x59-y10_59 <=1 
C425: x10+x60-y10_60 <=1 
C426: x10+x62 <=1 
C427: x10+x63-y10_63 <=1 
C428: x10+x64-y10_64 <=1 
C429: x11+x12-y11_12 <=1 
C430: x11+x16 <=1 
C431: x11+x18-y11_18 <=1 
C432: x11+x19 <=1 
C433: x11+x20-y11_20 <=1 
C434: x11+x22-y11_22 <=1 
C435: x11+x23 <=1 
C436: x11+x24 <=1 
C437: x11+x25-y11_25 <=1 
C438: x11+x26 <=1 
C439: x11+x27 <=1 
C440: x11+x29-y11_29 <=1 
C441: x11+x30 <=1 
C442: x11+x31 <=1 
C443: x11+x32-y11_32 <=1 
C444: x11+x34 <=1 
C445: x11+x35-y11_35 <=1 
C446: x11+x36-y11_36 <=1 
C447: x11+x38-y11_38 <=1 
C448: x11+x39 <=1 
C449: x11+x41 <=1 
C450: x11+x42-y11_42 <=1 
C451: x11+x43-y11_43 <=1 
C452: x11+x45-y11_45 <=1 
C453: x11+x47-y11_47 <=1 
C454: x11+x48 <=1 
C455: x11+x51-y11_51 <=1 
C456: x11+x56 <=1 
C457: x11+x57 <=1 
C458: x11+x58-y11_58 <=1 
C459: x11+x59 <=1 
C460: x11+x60 <=1 
C461: x11+x61 <=1 
C462: x11+x62-y11_62 <=1 
C463: x11+x63 <=1 
C464: x11+x64 <=1 
C465: x12+x14 <=1 
C466: x12+x15-y12_15 <=1 
C467: x12+x16-y12_16 <=1 
C468: x12+x18 <=1 
C469: x12+x19-y12_19 <=1 
C470: x12+x20-y12_20 <=1 
C471: x12+x21 <=1 
C472: x12+x22 <=1 
C473: x12+x23-y12_23 <=1 
C474: x12+x24-y12_24 <=1 
C475: x12+x25 <=1 
C476: x12+x27-y12_27 <=1 
C477: x12+x28 <=1 
C478: x12+x30-y12_30 <=1 
C479: x12+x31-y12_31 <=1 
C480: x12+x34-y12_34 <=1 
C481: x12+x36-y12_36 <=1 
C482: x12+x37 <=1 
C483: x12+x40 <=1 
C484: x12+x41 <=1 
C485: x12+x42 <=1 
C486: x12+x43 <=1 
C487: x12+x44-y12_44 <=1 
C488: x12+x45-y12_45 <=1 
C489: x12+x48-y12_48 <=1 
C490: x12+x49 <=1 
C491: x12+x50-y12_50 <=1 
C492: x12+x51-y12_51 <=1 
C493: x12+x54-y12_54 <=1 
C494: x12+x56-y12_56 <=1 
C495: x12+x57-y12_57 <=1 
C496: x12+x58 <=1 
C497: x12+x59-y12_59 <=1 
C498: x12+x60 <=1 
C499: x12+x62 <=1 
C500: x12+x65-y12_65 <=1 
C501: x13+x15-y13_15 <=1 
C502: x13+x18 <=1 
C503: x13+x19-y13_19 <=1 
C504: x13+x20 <=1 
C505: x13+x21 <=1 
C506: x13+x22 <=1 
C507: x13+x26-y13_26 <=1 
C508: x13+x28-y13_28 <=1 
C509: x13+x29 <=1 
C510: x13+x32 <=1 
C511: x13+x33 <=1 
C512: x13+x34 <=1 
C513: x13+x38 <=1 
C514: x13+x41 <=1 
C515: x13+x42 <=1 
C516: x13+x43-y13_43 <=1 
C517: x13+x44-y13_44 <=1 
C518: x13+x45 <=1 
C519: x13+x46 <=1 
C520: x13+x48-y13_48 <=1 
C521: x13+x49-y13_49 <=1 
C522: x13+x50 <=1 
C523: x13+x51-y13_51 <=1 
C524: x13+x53-y13_53 <=1 
C525: x13+x54-y13_54 <=1 
C526: x13+x55 <=1 
C527: x13+x58 <=1 
C528: x13+x59 <=1 
C529: x13+x61 <=1 
C530: x13+x62-y13_62 <=1 
C531: x13+x64-y13_64 <=1 
C532: x14+x15 <=1 
C533: x14+x18-y14_18 <=1 
C534: x14+x19 <=1 
C535: x14+x20-y14_20 <=1 
C536: x14+x21 <=1 
C537: x14+x24 <=1 
C538: x14+x27-y14_27 <=1 
C539: x14+x28 <=1 
C540: x14+x30 <=1 
C541: x14+x31 <=1 
C542: x14+x32 <=1 
C543: x14+x39-y14_39 <=1 
C544: x14+x40-y14_40 <=1 
C545: x14+x41-y14_41 <=1 
C546: x14+x42-y14_42 <=1 
C547: x14+x43-y14_43 <=1 
C548: x14+x44-y14_44 <=1 
C549: x14+x47-y14_47 <=1 
C550: x14+x48-y14_48 <=1 
C551: x14+x49 <=1 
C552: x14+x50 <=1 
C553: x14+x51 <=1 
C554: x14+x52 <=1 
C555: x14+x53 <=1 
C556: x14+x54 <=1 
C557: x14+x55 <=1 
C558: x14+x57-y14_57 <=1 
C559: x14+x59 <=1 
C560: x14+x61 <=1 
C561: x14+x64 <=1 
C562: x15+x16 <=1 
C563: x15+x17 <=1 
C564: x15+x18 <=1 
C565: x15+x20-y15_20 <=1 
C566: x15+x21 <=1 
C567: x15+x23 <=1 
C568: x15+x25-y15_25 <=1 
C569: x15+x26 <=1 
C570: x15+x27 <=1 
C571: x15+x31-y15_31 <=1 
C572: x15+x32 <=1 
C573: x15+x33 <=1 
C574: x15+x34-y15_34 <=1 
C575: x15+x37 <=1 
C576: x15+x39-y15_39 <=1 
C577: x15+x42 <=1 
C578: x15+x44 <=1 
C579: x15+x45-y15_45 <=1 
C580: x15+x48-y15_48 <=1 
C581: x15+x51-y15_51 <=1 
C582: x15+x52 <=1 
C583: x15+x53-y15_53 <=1 
C584: x15+x55-y15_55 <=1 
C585: x15+x56-y15_56 <=1 
C586: x15+x58-y15_58 <=1 
C587: x15+x61 <=1 
C588: x15+x62 <=1 
C589: x15+x63 <=1 
C590: x16+x17 <=1 
C591: x16+x20 <=1 
C592: x16+x21-y16_21 <=1 
C593: x16+x22-y16_22 <=1 
C594: x16+x25-y16_25 <=1 
C595: x16+x29 <=1 
C596: x16+x31 <=1 
C597: x16+x32 <=1 
C598: x16+x33-y16_33 <=1 
C599: x16+x36 <=1 
C600: x16+x38-y16_38 <=1 
C601: x16+x39 <=1 
C602: x16+x42 <=1 
C603: x16+x43-y16_43 <=1 
C604: x16+x45 <=1 
C605: x16+x48-y16_48 <=1 
C606: x16+x49-y16_49 <=1 
C607: x16+x52 <=1 
C608: x16+x53-y16_53 <=1 
C609: x16+x56 <=1 
C610: x16+x57-y16_57 <=1 
C611: x16+x58 <=1 
C612: x16+x60-y16_60 <=1 
C613: x16+x63-y16_63 <=1 
C614: x16+x64 <=1 
C615: x17+x18 <=1 
C616: x17+x19-y17_19 <=1 
C617: x17+x21-y17_21 <=1 
C618: x17+x24 <=1 
C619: x17+x25 <=1 
C620: x17+x27-y17_27 <=1 
C621: x17+x29 <=1 
C622: x17+x31-y17_31 <=1 
C623: x17+x33-y17_33 <=1 
C624: x17+x34 <=1 
C625: x17+x35-y17_35 <=1 
C626: x17+x37-y17_37 <=1 
C627: x17+x39-y17_39 <=1 
C628: x17+x40 <=1 
C629: x17+x42 <=1 
C630: x17+x44 <=1 
C631: x17+x45-y17_45 <=1 
C632: x17+x48-y17_48 <=1 
C633: x17+x49-y17_49 <=1 
C634: x17+x51 <=1 
C635: x17+x53-y17_53 <=1 
C636: x17+x60-y17_60 <=1 
C637: x17+x61 <=1 
C638: x17+x62 <=1 
C639: x17+x63 <=1 
C640: x17+x65 <=1 
C641: x18+x24-y18_24 <=1 
C642: x18+x25-y18_25 <=1 
C643: x18+x28-y18_28 <=1 
C644: x18+x29-y18_29 <=1 
C645: x18+x30 <=1 
C646: x18+x31 <=1 
C647: x18+x32 <=1 
C648: x18+x33-y18_33 <=1 
C649: x18+x35-y18_35 <=1 
C650: x18+x37 <=1 
C651: x18+x39-y18_39 <=1 
C652: x18+x40 <=1 
C653: x18+x42 <=1 
C654: x18+x44 <=1 
C655: x18+x47-y18_47 <=1 
C656: x18+x48 <=1 
C657: x18+x51-y18_51 <=1 
C658: x18+x52 <=1 
C659: x18+x53-y18_53 <=1 
C660: x18+x54-y18_54 <=1 
C661: x18+x56 <=1 
C662: x18+x60-y18_60 <=1 
C663: x18+x63 <=1 
C664: x18+x64 <=1 
C665: x18+x65-y18_65 <=1 
C666: x19+x21-y19_21 <=1 
C667: x19+x23-y19_23 <=1 
C668: x19+x26 <=1 
C669: x19+x27 <=1 
C670: x19+x28-y19_28 <=1 
C671: x19+x29 <=1 
C672: x19+x30-y19_30 <=1 
C673: x19+x31-y19_31 <=1 
C674: x19+x32 <=1 
C675: x19+x34-y19_34 <=1 
C676: x19+x36-y19_36 <=1 
C677: x19+x37 <=1 
C678: x19+x38 <=1 
C679: x19+x41-y19_41 <=1 
C680: x19+x43 <=1 
C681: x19+x47 <=1 
C682: x19+x49-y19_49 <=1 
C683: x19+x50-y19_50 <=1 
C684: x19+x51-y19_51 <=1 
C685: x19+x52-y19_52 <=1 
C686: x19+x54 <=1 
C687: x19+x56-y19_56 <=1 
C688: x19+x57-y19_57 <=1 
C689: x19+x58 <=1 
C690: x19+x61-y19_61 <=1 
C691: x19+x62-y19_62 <=1 
C692: x19+x63 <=1 
C693: x19+x65 <=1 
C694: x20+x26-y20_26 <=1 
C695: x20+x27-y20_27 <=1 
C696: x20+x29-y20_29 <=1 
C697: x20+x30-y20_30 <=1 
C698: x20+x31 <=1 
C699: x20+x33 <=1 
C700: x20+x34 <=1 
C701: x20+x39 <=1 
C702: x20+x40 <=1 
C703: x20+x42-y20_42 <=1 
C704: x20+x43 <=1 
C705: x20+x44-y20_44 <=1 
C706: x20+x45 <=1 
C707: x20+x49 <=1 
C708: x20+x50 <=1 
C709: x20+x52-y20_52 <=1 
C710: x20+x53-y20_53 <=1 
C711: x20+x54 <=1 
C712: x20+x56-y20_56 <=1 
C713: x20+x57 <=1 
C714: x20+x58 <=1 
C715: x20+x59 <=1 
C716: x20+x60-y20_60 <=1 
C717: x20+x61-y20_61 <=1 
C718: x20+x62 <=1 
C719: x20+x63-y20_63 <=1 
C720: x20+x65-y20_65 <=1 
C721: x21+x22 <=1 
C722: x21+x23-y21_23 <=1 
C723: x21+x25-y21_25 <=1 
C724: x21+x27 <=1 
C725: x21+x29 <=1 
C726: x21+x30 <=1 
C727: x21+x31-y21_31 <=1 
C728: x21+x32-y21_32 <=1 
C729: x21+x33-y21_33 <=1 
C730: x21+x34 <=1 
C731: x21+x35 <=1 
C732: x21+x37 <=1 
C733: x21+x38 <=1 
C734: x21+x39-y21_39 <=1 
C735: x21+x41 <=1 
C736: x21+x42-y21_42 <=1 
C737: x21+x44 <=1 
C738: x21+x48 <=1 
C739: x21+x49 <=1 
C740: x21+x50 <=1 
C741: x21+x52 <=1 
C742: x21+x53 <=1 
C743: x21+x57-y21_57 <=1 
C744: x21+x58-y21_58 <=1 
C745: x21+x59-y21_59 <=1 
C746: x21+x60-y21_60 <=1 
C747: x21+x62-y21_62 <=1 
C748: x21+x64 <=1 
C749: x22+x23-y22_23 <=1 
C750: x22+x29-y22_29 <=1 
C751: x22+x30-y22_30 <=1 
C752: x22+x32 <=1 
C753: x22+x34-y22_34 <=1 
C754: x22+x36-y22_36 <=1 
C755: x22+x37-y22_37 <=1 
C756: x22+x38-y22_38 <=1 
C757: x22+x41-y22_41 <=1 
C758: x22+x43 <=1 
C759: x22+x44 <=1 
C760: x22+x46 <=1 
C761: x22+x48-y22_48 <=1 
C762: x22+x50 <=1 
C763: x22+x51 <=1 
C764: x22+x52-y22_52 <=1 
C765: x22+x53-y22_53 <=1 
C766: x22+x54 <=1 
C767: x22+x59 <=1 
C768: x22+x60 <=1 
C769: x22+x62-y22_62 <=1 
C770: x22+x63 <=1 
C771: x23+x24 <=1 
C772: x23+x25 <=1 
C773: x23+x26-y23_26 <=1 
C774: x23+x28 <=1 
C775: x23+x31-y23_31 <=1 
C776: x23+x33 <=1 
C777: x23+x35 <=1 
C778: x23+x36 <=1 
C779: x23+x38 <=1 
C780: x23+x44 <=1 
C781: x23+x45-y23_45 <=1 
C782: x23+x46 <=1 
C783: x23+x47 <=1 
C784: x23+x48 <=1 
C785: x23+x51 <=1 
C786: x23+x52 <=1 
C787: x23+x54-y23_54 <=1 
C788: x23+x55-y23_55 <=1 
C789: x23+x56 <=1 
C790: x23+x57 <=1 
C791: x23+x58 <=1 
C792: x23+x59-y23_59 <=1 
C793: x23+x62-y23_62 <=1 
C794: x23+x63-y23_63 <=1 
C795: x24+x27-y24_27 <=1 
C796: x24+x28 <=1 
C797: x24+x30-y24_30 <=1 
C798: x24+x31 <=1 
C799: x24+x32-y24_32 <=1 
C800: x24+x34-y24_34 <=1 
C801: x24+x35-y24_35 <=1 
C802: x24+x36 <=1 
C803: x24+x37 <=1 
C804: x24+x38-y24_38 <=1 
C805: x24+x39-y24_39 <=1 
C806: x24+x40 <=1 
C807: x24+x41-y24_41 <=1 
C808: x24+x42-y24_42 <=1 
C809: x24+x43-y24_43 <=1 
C810: x24+x44 <=1 
C811: x24+x46 <=1 
C812: x24+x48-y24_48 <=1 
C813: x24+x49 <=1 
C814: x24+x52-y24_52 <=1 
C815: x24+x53-y24_53 <=1 
C816: x24+x54-y24_54 <=1 
C817: x24+x56 <=1 
C818: x24+x57 <=1 
C819: x24+x60 <=1 
C820: x24+x63 <=1 
C821: x24+x64-y24_64 <=1 
C822: x24+x65-y24_65 <=1 
C823: x25+x26-y25_26 <=1 
C824: x25+x28 <=1 
C825: x25+x29 <=1 
C826: x25+x31 <=1 
C827: x25+x33 <=1 
C828: x25+x34 <=1 
C829: x25+x36-y25_36 <=1 
C830: x25+x37 <=1 
C831: x25+x40 <=1 
C832: x25+x42 <=1 
C833: x25+x45-y25_45 <=1 
C834: x25+x46-y25_46 <=1 
C835: x25+x47-y25_47 <=1 
C836: x25+x48-y25_48 <=1 
C837: x25+x49-y25_49 <=1 
C838: x25+x50 <=1 
C839: x25+x51-y25_51 <=1 
C840: x25+x52-y25_52 <=1 
C841: x25+x55-y25_55 <=1 
C842: x25+x57 <=1 
C843: x25+x58-y25_58 <=1 
C844: x25+x60-y25_60 <=1 
C845: x25+x63-y25_63 <=1 
C846: x25+x64-y25_64 <=1 
C847: x26+x27-y26_27 <=1 
C848: x26+x28 <=1 
C849: x26+x30-y26_30 <=1 
C850: x26+x31-y26_31 <=1 
C851: x26+x33 <=1 
C852: x26+x37 <=1 
C853: x26+x39 <=1 
C854: x26+x42-y26_42 <=1 
C855: x26+x43-y26_43 <=1 
C856: x26+x44-y26_44 <=1 
C857: x26+x45 <=1 
C858: x26+x46-y26_46 <=1 
C859: x26+x47 <=1 
C860: x26+x49-y26_49 <=1 
C861: x26+x50 <=1 
C862: x26+x51 <=1 
C863: x26+x53 <=1 
C864: x26+x54-y26_54 <=1 
C865: x26+x56 <=1 
C866: x26+x57-y26_57 <=1 
C867: x26+x60-y26_60 <=1 
C868: x26+x61-y26_61 <=1 
C869: x26+x62 <=1 
C870: x26+x64 <=1 
C871: x27+x28 <=1 
C872: x27+x30 <=1 
C873: x27+x31 <=1 
C874: x27+x34 <=1 
C875: x27+x35-y27_35 <=1 
C876: x27+x36 <=1 
C877: x27+x37-y27_37 <=1 
C878: x27+x38-y27_38 <=1 
C879: x27+x39-y27_39 <=1 
C880: x27+x40-y27_40 <=1 
C881: x27+x43 <=1 
C882: x27+x46-y27_46 <=1 
C883: x27+x48 <=1 
C884: x27+x50 <=1 
C885: x27+x52 <=1 
C886: x27+x53-y27_53 <=1 
C887: x27+x55 <=1 
C888: x27+x56-y27_56 <=1 
C889: x27+x57-y27_57 <=1 
C890: x27+x59 <=1 
C891: x27+x61 <=1 
C892: x27+x62 <=1 
C893: x27+x63-y27_63 <=1 
C894: x27+x64 <=1 
C895: x28+x30-y28_30 <=1 
C896: x28+x32-y28_32 <=1 
C897: x28+x33 <=1 
C898: x28+x34 <=1 
C899: x28+x35-y28_35 <=1 
C900: x28+x36 <=1 
C901: x28+x37 <=1 
C902: x28+x38-y28_38 <=1 
C903: x28+x40 <=1 
C904: x28+x42-y28_42 <=1 
C905: x28+x43 <=1 
C906: x28+x47 <=1 
C907: x28+x48-y28_48 <=1 
C908: x28+x52-y28_52 <=1 
C909: x28+x56-y28_56 <=1 
C910: x28+x57-y28_57 <=1 
C911: x28+x59 <=1 
C912: x28+x61-y28_61 <=1 
C913: x28+x62 <=1 
C914: x28+x64 <=1 
C915: x28+x65-y28_65 <=1 
C916: x29+x32 <=1 
C917: x29+x33-y29_33 <=1 
C918: x29+x34-y29_34 <=1 
C919: x29+x35 <=1 
C920: x29+x36 <=1 
C921: x29+x37-y29_37 <=1 
C922: x29+x38-y29_38 <=1 
C923: x29+x40 <=1 
C924: x29+x43 <=1 
C925: x29+x44 <=1 
C926: x29+x45 <=1 
C927: x29+x47-y29_47 <=1 
C928: x29+x48 <=1 
C929: x29+x51 <=1 
C930: x29+x52-y29_52 <=1 
C931: x29+x54 <=1 
C932: x29+x59-y29_59 <=1 
C933: x29+x61 <=1 
C934: x29+x62 <=1 
C935: x29+x64 <=1 
C936: x29+x65 <=1 
C937: x30+x31 <=1 
C938: x30+x32 <=1 
C939: x30+x34-y30_34 <=1 
C940: x30+x35-y30_35 <=1 
C941: x30+x39-y30_39 <=1 
C942: x30+x41 <=1 
C943: x30+x42 <=1 
C944: x30+x45-y30_45 <=1 
C945: x30+x46-y30_46 <=1 
C946: x30+x47 <=1 
C947: x30+x48 <=1 
C948: x30+x56-y30_56 <=1 
C949: x30+x60-y30_60 <=1 
C950: x30+x61 <=1 
C951: x30+x62-y30_62 <=1 
C952: x30+x63 <=1 
C953: x30+x64-y30_64 <=1 
C954: x30+x65-y30_65 <=1 
C955: x31+x32 <=1 
C956: x31+x33-y31_33 <=1 
C957: x31+x38-y31_38 <=1 
C958: x31+x39-y31_39 <=1 
C959: x31+x40 <=1 
C960: x31+x41 <=1 
C961: x31+x42-y31_42 <=1 
C962: x31+x43 <=1 
C963: x31+x44-y31_44 <=1 
C964: x31+x45-y31_45 <=1 
C965: x31+x47 <=1 
C966: x31+x51-y31_51 <=1 
C967: x31+x52-y31_52 <=1 
C968: x31+x53 <=1 
C969: x31+x55 <=1 
C970: x31+x56-y31_56 <=1 
C971: x31+x57-y31_57 <=1 
C972: x31+x59 <=1 
C973: x31+x60-y31_60 <=1 
C974: x31+x61 <=1 
C975: x31+x62 <=1 
C976: x31+x63-y31_63 <=1 
C977: x31+x65 <=1 
C978: x32+x35 <=1 
C979: x32+x36-y32_36 <=1 
C980: x32+x37 <=1 
C981: x32+x39 <=1 
C982: x32+x44-y32_44 <=1 
C983: x32+x46 <=1 
C984: x32+x47 <=1 
C985: x32+x49-y32_49 <=1 
C986: x32+x50 <=1 
C987: x32+x54-y32_54 <=1 
C988: x32+x55 <=1 
C989: x32+x57-y32_57 <=1 
C990: x32+x61 <=1 
C991: x32+x62-y32_62 <=1 
C992: x32+x63-y32_63 <=1 
C993: x32+x64 <=1 
C994: x32+x65 <=1 
C995: x33+x36-y33_36 <=1 
C996: x33+x38 <=1 
C997: x33+x39-y33_39 <=1 
C998: x33+x40 <=1 
C999: x33+x41-y33_41 <=1 
C1000: x33+x42 <=1 
C1001: x33+x43 <=1 
C1002: x33+x46-y33_46 <=1 
C1003: x33+x47 <=1 
C1004: x33+x51-y33_51 <=1 
C1005: x33+x52 <=1 
C1006: x33+x56-y33_56 <=1 
C1007: x33+x57 <=1 
C1008: x33+x58 <=1 
C1009: x33+x60-y33_60 <=1 
C1010: x33+x61 <=1 
C1011: x33+x62 <=1 
C1012: x33+x63 <=1 
C1013: x33+x64-y33_64 <=1 
C1014: x33+x65-y33_65 <=1 
C1015: x34+x36-y34_36 <=1 
C1016: x34+x37-y34_37 <=1 
C1017: x34+x38-y34_38 <=1 
C1018: x34+x39 <=1 
C1019: x34+x41-y34_41 <=1 
C1020: x34+x42-y34_42 <=1 
C1021: x34+x43 <=1 
C1022: x34+x44 <=1 
C1023: x34+x48-y34_48 <=1 
C1024: x34+x49-y34_49 <=1 
C1025: x34+x50-y34_50 <=1 
C1026: x34+x51-y34_51 <=1 
C1027: x34+x53 <=1 
C1028: x34+x56-y34_56 <=1 
C1029: x34+x59-y34_59 <=1 
C1030: x34+x60-y34_60 <=1 
C1031: x34+x63 <=1 
C1032: x34+x65 <=1 
C1033: x35+x36-y35_36 <=1 
C1034: x35+x37-y35_37 <=1 
C1035: x35+x38 <=1 
C1036: x35+x39-y35_39 <=1 
C1037: x35+x40-y35_40 <=1 
C1038: x35+x47-y35_47 <=1 
C1039: x35+x51-y35_51 <=1 
C1040: x35+x53-y35_53 <=1 
C1041: x35+x54 <=1 
C1042: x35+x56-y35_56 <=1 
C1043: x35+x59-y35_59 <=1 
C1044: x35+x60 <=1 
C1045: x35+x61 <=1 
C1046: x35+x63 <=1 
C1047: x35+x64-y35_64 <=1 
C1048: x36+x37-y36_37 <=1 
C1049: x36+x38 <=1 
C1050: x36+x40 <=1 
C1051: x36+x42-y36_42 <=1 
C1052: x36+x43-y36_43 <=1 
C1053: x36+x45-y36_45 <=1 
C1054: x36+x47 <=1 
C1055: x36+x48 <=1 
C1056: x36+x49 <=1 
C1057: x36+x50 <=1 
C1058: x36+x51 <=1 
C1059: x36+x52-y36_52 <=1 
C1060: x36+x53 <=1 
C1061: x36+x55-y36_55 <=1 
C1062: x36+x56-y36_56 <=1 
C1063: x36+x57-y36_57 <=1 
C1064: x36+x58 <=1 
C1065: x36+x59 <=1 
C1066: x36+x60 <=1 
C1067: x36+x62-y36_62 <=1 
C1068: x36+x63-y36_63 <=1 
C1069: x37+x38-y37_38 <=1 
C1070: x37+x40-y37_40 <=1 
C1071: x37+x41-y37_41 <=1 
C1072: x37+x42 <=1 
C1073: x37+x43-y37_43 <=1 
C1074: x37+x44-y37_44 <=1 
C1075: x37+x45-y37_45 <=1 
C1076: x37+x46 <=1 
C1077: x37+x47-y37_47 <=1 
C1078: x37+x49 <=1 
C1079: x37+x52 <=1 
C1080: x37+x53-y37_53 <=1 
C1081: x37+x55 <=1 
C1082: x37+x59 <=1 
C1083: x37+x60-y37_60 <=1 
C1084: x37+x61-y37_61 <=1 
C1085: x37+x63 <=1 
C1086: x37+x65 <=1 
C1087: x38+x39 <=1 
C1088: x38+x40-y38_40 <=1 
C1089: x38+x43-y38_43 <=1 
C1090: x38+x44-y38_44 <=1 
C1091: x38+x46-y38_46 <=1 
C1092: x38+x47 <=1 
C1093: x38+x48 <=1 
C1094: x38+x49 <=1 
C1095: x38+x50 <=1 
C1096: x38+x51-y38_51 <=1 
C1097: x38+x53-y38_53 <=1 
C1098: x38+x54 <=1 
C1099: x38+x55-y38_55 <=1 
C1100: x38+x56 <=1 
C1101: x38+x58-y38_58 <=1 
C1102: x38+x60-y38_60 <=1 
C1103: x38+x61 <=1 
C1104: x38+x64-y38_64 <=1 
C1105: x38+x65-y38_65 <=1 
C1106: x39+x41-y39_41 <=1 
C1107: x39+x42-y39_42 <=1 
C1108: x39+x43 <=1 
C1109: x39+x44 <=1 
C1110: x39+x45 <=1 
C1111: x39+x46-y39_46 <=1 
C1112: x39+x47 <=1 
C1113: x39+x49-y39_49 <=1 
C1114: x39+x50 <=1 
C1115: x39+x51-y39_51 <=1 
C1116: x39+x52-y39_52 <=1 
C1117: x39+x54-y39_54 <=1 
C1118: x39+x55-y39_55 <=1 
C1119: x39+x57-y39_57 <=1 
C1120: x39+x58-y39_58 <=1 
C1121: x39+x59-y39_59 <=1 
C1122: x39+x61-y39_61 <=1 
C1123: x39+x62 <=1 
C1124: x39+x65-y39_65 <=1 
C1125: x40+x41 <=1 
C1126: x40+x42 <=1 
C1127: x40+x43 <=1 
C1128: x40+x47 <=1 
C1129: x40+x48-y40_48 <=1 
C1130: x40+x49-y40_49 <=1 
C1131: x40+x54 <=1 
C1132: x40+x55 <=1 
C1133: x40+x56-y40_56 <=1 
C1134: x40+x57-y40_57 <=1 
C1135: x40+x58-y40_58 <=1 
C1136: x40+x62 <=1 
C1137: x40+x63-y40_63 <=1 
C1138: x40+x64-y40_64 <=1 
C1139: x40+x65-y40_65 <=1 
C1140: x41+x42 <=1 
C1141: x41+x43 <=1 
C1142: x41+x44-y41_44 <=1 
C1143: x41+x45-y41_45 <=1 
C1144: x41+x48 <=1 
C1145: x41+x56-y41_56 <=1 
C1146: x41+x59 <=1 
C1147: x41+x60-y41_60 <=1 
C1148: x41+x61-y41_61 <=1 
C1149: x41+x63-y41_63 <=1 
C1150: x41+x65 <=1 
C1151: x42+x43-y42_43 <=1 
C1152: x42+x45-y42_45 <=1 
C1153: x42+x46-y42_46 <=1 
C1154: x42+x51-y42_51 <=1 
C1155: x42+x52 <=1 
C1156: x42+x54 <=1 
C1157: x42+x55 <=1 
C1158: x42+x56-y42_56 <=1 
C1159: x42+x57 <=1 
C1160: x42+x59-y42_59 <=1 
C1161: x42+x61-y42_61 <=1 
C1162: x42+x62-y42_62 <=1 
C1163: x42+x63-y42_63 <=1 
C1164: x42+x64 <=1 
C1165: x42+x65-y42_65 <=1 
C1166: x43+x45-y43_45 <=1 
C1167: x43+x46-y43_46 <=1 
C1168: x43+x47 <=1 
C1169: x43+x48-y43_48 <=1 
C1170: x43+x50-y43_50 <=1 
C1171: x43+x51-y43_51 <=1 
C1172: x43+x52 <=1 
C1173: x43+x56 <=1 
C1174: x43+x60 <=1 
C1175: x43+x61 <=1 
C1176: x43+x63-y43_63 <=1 
C1177: x43+x65 <=1 
C1178: x44+x50-y44_50 <=1 
C1179: x44+x52 <=1 
C1180: x44+x53 <=1 
C1181: x44+x57 <=1 
C1182: x44+x59 <=1 
C1183: x44+x61 <=1 
C1184: x44+x62-y44_62 <=1 
C1185: x44+x64 <=1 
C1186: x44+x65-y44_65 <=1 
C1187: x45+x49-y45_49 <=1 
C1188: x45+x50-y45_50 <=1 
C1189: x45+x54-y45_54 <=1 
C1190: x45+x55-y45_55 <=1 
C1191: x45+x56 <=1 
C1192: x45+x57-y45_57 <=1 
C1193: x45+x58 <=1 
C1194: x45+x59-y45_59 <=1 
C1195: x45+x62-y45_62 <=1 
C1196: x45+x63-y45_63 <=1 
C1197: x45+x65 <=1 
C1198: x46+x47-y46_47 <=1 
C1199: x46+x48 <=1 
C1200: x46+x49-y46_49 <=1 
C1201: x46+x50 <=1 
C1202: x46+x51 <=1 
C1203: x46+x52-y46_52 <=1 
C1204: x46+x53-y46_53 <=1 
C1205: x46+x54-y46_54 <=1 
C1206: x46+x56-y46_56 <=1 
C1207: x46+x57 <=1 
C1208: x46+x59-y46_59 <=1 
C1209: x46+x61-y46_61 <=1 
C1210: x46+x62-y46_62 <=1 
C1211: x46+x63-y46_63 <=1 
C1212: x46+x64 <=1 
C1213: x47+x48-y47_48 <=1 
C1214: x47+x50 <=1 
C1215: x47+x51-y47_51 <=1 
C1216: x47+x52-y47_52 <=1 
C1217: x47+x54 <=1 
C1218: x47+x55-y47_55 <=1 
C1219: x47+x57 <=1 
C1220: x47+x63 <=1 
C1221: x47+x65 <=1 
C1222: x48+x49-y48_49 <=1 
C1223: x48+x51 <=1 
C1224: x48+x52-y48_52 <=1 
C1225: x48+x54 <=1 
C1226: x48+x56 <=1 
C1227: x48+x58 <=1 
C1228: x48+x59 <=1 
C1229: x48+x62-y48_62 <=1 
C1230: x48+x63-y48_63 <=1 
C1231: x48+x64-y48_64 <=1 
C1232: x49+x50 <=1 
C1233: x49+x51-y49_51 <=1 
C1234: x49+x55 <=1 
C1235: x49+x56-y49_56 <=1 
C1236: x49+x57 <=1 
C1237: x49+x59 <=1 
C1238: x49+x60-y49_60 <=1 
C1239: x49+x63-y49_63 <=1 
C1240: x50+x51 <=1 
C1241: x50+x53-y50_53 <=1 
C1242: x50+x54-y50_54 <=1 
C1243: x50+x56-y50_56 <=1 
C1244: x50+x57 <=1 
C1245: x50+x60 <=1 
C1246: x50+x62 <=1 
C1247: x50+x64 <=1 
C1248: x50+x65-y50_65 <=1 
C1249: x51+x52-y51_52 <=1 
C1250: x51+x53-y51_53 <=1 
C1251: x51+x54-y51_54 <=1 
C1252: x51+x55-y51_55 <=1 
C1253: x51+x56 <=1 
C1254: x51+x57-y51_57 <=1 
C1255: x51+x58-y51_58 <=1 
C1256: x51+x59-y51_59 <=1 
C1257: x51+x60-y51_60 <=1 
C1258: x51+x61 <=1 
C1259: x51+x62-y51_62 <=1 
C1260: x51+x64 <=1 
C1261: x51+x65 <=1 
C1262: x52+x53 <=1 
C1263: x52+x57-y52_57 <=1 
C1264: x52+x58-y52_58 <=1 
C1265: x52+x60-y52_60 <=1 
C1266: x52+x61-y52_61 <=1 
C1267: x52+x65 <=1 
C1268: x53+x54 <=1 
C1269: x53+x55-y53_55 <=1 
C1270: x53+x56 <=1 
C1271: x53+x57-y53_57 <=1 
C1272: x53+x58 <=1 
C1273: x53+x59-y53_59 <=1 
C1274: x53+x60-y53_60 <=1 
C1275: x53+x63-y53_63 <=1 
C1276: x53+x64 <=1 
C1277: x53+x65 <=1 
C1278: x54+x55-y54_55 <=1 
C1279: x54+x56-y54_56 <=1 
C1280: x54+x57 <=1 
C1281: x54+x58 <=1 
C1282: x54+x62 <=1 
C1283: x54+x63 <=1 
C1284: x54+x65 <=1 
C1285: x55+x56 <=1 
C1286: x55+x59-y55_59 <=1 
C1287: x55+x60-y55_60 <=1 
C1288: x55+x63 <=1 
C1289: x55+x65 <=1 
C1290: x56+x58 <=1 
C1291: x56+x60 <=1 
C1292: x56+x61-y56_61 <=1 
C1293: x56+x62 <=1 
C1294: x56+x63 <=1 
C1295: x56+x64-y56_64 <=1 
C1296: x56+x65-y56_65 <=1 
C1297: x57+x63 <=1 
C1298: x58+x59-y58_59 <=1 
C1299: x58+x60 <=1 
C1300: x58+x63 <=1 
C1301: x58+x64-y58_64 <=1 
C1302: x58+x65-y58_65 <=1 
C1303: x59+x62 <=1 
C1304: x59+x63-y59_63 <=1 
C1305: x59+x64-y59_64 <=1 
C1306: x60+x62 <=1 
C1307: x60+x64-y60_64 <=1 
C1308: x60+x65-y60_65 <=1 
C1309: x61+x62 <=1 
C1310: x61+x63-y61_63 <=1 
C1311: x62+x64-y62_64 <=1 
C1312: x62+x65 <=1 
C1313: x63+x65-y63_65 <=1 
C1314: x64+x65-y64_65 <=1 

binary
x0
x1
x2
x3
x4
x5
x6
x7
x8
x9
x10
x11
x12
x13
x14
x15
x16
x17
x18
x19
x20
x21
x22
x23
x24
x25
x26
x27
x28
x29
x30
x31
x32
x33
x34
x35
x36
x37
x38
x39
x40
x41
x42
x43
x44
x45
x46
x47
x48
x49
x50
x51
x52
x53
x54
x55
x56
x57
x58
x59
x60
x61
x62
x63
x64
x65
