problem_generation/data/GISP/train/er_n=66_m=1314_p=0.60_SET2_setparam=100.00_alpha=0.50_340.sol
objective value:                                 1263
x4                                                  1 	(obj:100)
x10                                                 1 	(obj:100)
x12                                                 1 	(obj:100)
x19                                                 1 	(obj:100)
x30                                                 1 	(obj:100)
x34                                                 1 	(obj:100)
x35                                                 1 	(obj:100)
x45                                                 1 	(obj:100)
x52                                                 1 	(obj:100)
x55                                                 1 	(obj:100)
x57                                                 1 	(obj:100)
x59                                                 1 	(obj:100)
x64                                                 1 	(obj:100)
y59_64                                              1 	(obj:-1)
y10_35                                              1 	(obj:-1)
y35_64                                              1 	(obj:-1)
y35_59                                              1 	(obj:-1)
y12_57                                              1 	(obj:-1)
y30_64                                              1 	(obj:-1)
y12_34                                              1 	(obj:-1)
y4_57                                               1 	(obj:-1)
y4_34                                               1 	(obj:-1)
y4_52                                               1 	(obj:-1)
y30_45                                              1 	(obj:-1)
y45_57                                              1 	(obj:-1)
y12_19                                              1 	(obj:-1)
y30_35                                              1 	(obj:-1)
y4_10                                               1 	(obj:-1)
y19_30                                              1 	(obj:-1)
y10_57                                              1 	(obj:-1)
y10_52                                              1 	(obj:-1)
y55_59                                              1 	(obj:-1)
y10_19                                              1 	(obj:-1)
y12_59                                              1 	(obj:-1)
y19_57                                              1 	(obj:-1)
y12_45                                              1 	(obj:-1)
y4_59                                               1 	(obj:-1)
y19_34                                              1 	(obj:-1)
y30_34                                              1 	(obj:-1)
y19_52                                              1 	(obj:-1)
y45_55                                              1 	(obj:-1)
y34_59                                              1 	(obj:-1)
y45_59                                              1 	(obj:-1)
y52_57                                              1 	(obj:-1)
y12_30                                              1 	(obj:-1)
y4_35                                               1 	(obj:-1)
y4_12                                               1 	(obj:-1)
y10_55                                              1 	(obj:-1)
y10_64                                              1 	(obj:-1)
y10_59                                              1 	(obj:-1)
